p cnf 36 28
c p distribution  0.875 0.125
c p distribution  0.875 0.125
c p distribution  0.875 0.125
c p distribution  0.875 0.125
c p distribution  0.875 0.125
c p distribution  0.875 0.125
c p distribution  0.875 0.125
c p distribution  0.875 0.125
c p distribution  0.875 0.125
c p distribution  0.875 0.125
c p distribution  0.875 0.125
c p distribution  0.875 0.125
c p distribution  0.875 0.125
28 0
-32 0
30 -34 -1 0
34 -30 -1 0
27 -35 -3 0
35 -27 -3 0
32 -31 -5 0
31 -32 -5 0
31 -28 -7 0
28 -31 -7 0
29 -33 -9 0
33 -29 -9 0
31 -36 -11 0
36 -31 -11 0
35 -32 -13 0
32 -35 -13 0
32 -29 -15 0
29 -32 -15 0
29 -33 -17 0
33 -29 -17 0
36 -35 -19 0
35 -36 -19 0
27 -36 -21 0
36 -27 -21 0
36 -33 -23 0
33 -36 -23 0
30 -34 -25 0
34 -30 -25 0

